(set-logic HORN)
(set-info :source |
    Benchmark: C_VC
    Output by Princess (http://www.philipp.ruemmer.org/princess.shtml)
|)
(set-info :status unknown)
(declare-fun inv_main14 (Int Int Int Int) Bool)
(declare-fun inv_main17 (Int Int Int) Bool)
(declare-fun inv_main3 (Int) Bool)
(declare-fun inv_main7 (Int Int Int) Bool)
(assert (forall ((var0 Int)) (inv_main3 var0 ) ) )
(assert (forall ((var0 Int)) (forall ((var1 Int)) (forall ((var2 Int)) (forall ((var3 Int)) (or (not (and (inv_main14 var2 var1 var0 var3 ) (<= 0 (+ 10 (* (- 1) var3 ) ) ) ) ) (inv_main14 var2 var1 var0 (+ var3 1 ) ) ) ) ) ) ) )
(assert (forall ((var0 Int)) (forall ((var1 Int)) (forall ((var2 Int)) (or (not (and (inv_main7 var0 var1 var2 ) (<= 0 (+ 10 (* (- 1) var2 ) ) ) ) ) (inv_main7 var0 var1 (+ var2 1 ) ) ) ) ) ) )
(assert (forall ((var0 Int)) (forall ((var1 Int)) (forall ((var2 Int)) (forall ((var3 Int)) (or (not (and (inv_main14 var2 var1 var0 var3 ) (not (<= 0 (+ 10 (* (- 1) var3 ) ) ) ) ) ) (inv_main17 var2 var1 var3 ) ) ) ) ) ) )
(assert (forall ((var0 Int)) (or (not (inv_main3 var0 ) ) (inv_main7 var0 var0 0 ) ) ) )
(assert (forall ((var0 Int)) (forall ((var1 Int)) (forall ((var2 Int)) (or (not (and (inv_main7 var0 var1 var2 ) (not (<= 0 (+ 10 (* (- 1) var2 ) ) ) ) ) ) (inv_main14 var0 var2 var0 1 ) ) ) ) ) )
(assert (forall ((var0 Int)) (forall ((var1 Int)) (forall ((var2 Int)) (not (and (inv_main17 var2 var1 var0 ) (not (= var1 var0 ) ) ) ) ) ) ) )
(check-sat)
